
Gurobi 9.1.2 (linux64, gurobi_cl) logging started Fri Jul 30 13:55:23 2021

Using license file /opt/gurobi/gurobi.lic
Set parameter TimeLimit to value 600
Set parameter Heuristics to value 0
Set parameter Cuts to value 0
Set parameter LogFile to value 912-Cuts0-Heuristics0-glass4-1.log
Set parameter Seed to value 1

Gurobi Optimizer version 9.1.2 build v9.1.2rc0 (linux64)
Copyright (c) 2021, Gurobi Optimization, LLC

Read MPS format model from file /nfs/models/mip/glass4.mps.bz2
Reading time = 0.01 seconds
glass4: 396 rows, 322 columns, 1815 nonzeros
Thread count: 4 physical cores, 8 logical processors, using up to 8 threads
Optimize a model with 396 rows, 322 columns and 1815 nonzeros
Model fingerprint: 0x0a9d9037
Variable types: 20 continuous, 302 integer (0 binary)
Coefficient statistics:
  Matrix range     [1e+00, 8e+06]
  Objective range  [1e+00, 1e+06]
  Bounds range     [1e+00, 8e+02]
  RHS range        [1e+00, 8e+06]
Presolve removed 6 rows and 6 columns
Presolve time: 0.00s
Presolved: 390 rows, 316 columns, 1803 nonzeros
Variable types: 19 continuous, 297 integer (297 binary)

Root relaxation: objective 8.000024e+08, 72 iterations, 0.00 seconds

    Nodes    |    Current Node    |     Objective Bounds      |     Work
 Expl Unexpl |  Obj  Depth IntInf | Incumbent    BestBd   Gap | It/Node Time

     0     0 8.0000e+08    0   72          - 8.0000e+08      -     -    0s
     0     0 8.0000e+08    0   72          - 8.0000e+08      -     -    0s
     0     2 8.0000e+08    0   72          - 8.0000e+08      -     -    0s
*  508   654             150    2.600022e+09 8.0000e+08  69.2%   2.8    0s
* 1376  1944             168    2.590023e+09 8.0000e+08  69.1%   2.8    0s
* 1396  1906             178    2.133354e+09 8.0000e+08  62.5%   2.8    0s
* 2939  2249              94    2.133354e+09 8.0000e+08  62.5%   3.0    0s
* 2941  2160              95    2.133354e+09 8.0000e+08  62.5%   3.0    0s
* 3102  2227              90    2.100019e+09 8.0000e+08  61.9%   3.0    0s
* 3444  2326             118    2.000021e+09 8.0000e+08  60.0%   3.0    0s
* 3961  2611              72    2.000021e+09 8.0000e+08  60.0%   3.0    0s
* 3972  2515              77    2.000019e+09 8.0000e+08  60.0%   3.0    0s
* 3973  2444              78    2.000019e+09 8.0000e+08  60.0%   3.0    0s
* 3974  2380              78    2.000019e+09 8.0000e+08  60.0%   3.0    0s
* 4176  2190              86    1.900017e+09 8.0000e+08  57.9%   3.0    0s
* 9659  5602             119    1.850015e+09 8.0000e+08  56.8%   2.9    0s
*12126  7073             122    1.843348e+09 8.0000e+08  56.6%   2.9    0s
*12127  7071             121    1.842682e+09 8.0000e+08  56.6%   2.9    0s
*13559  8280             107    1.833351e+09 8.0000e+08  56.4%   2.9    0s
*13577  8280             107    1.833351e+09 8.0000e+08  56.4%   2.9    0s
*15507  9289              81    1.800019e+09 8.0000e+08  55.6%   2.9    0s
*15945 15005              93    1.800018e+09 8.0000e+08  55.6%   2.9    0s
*15953 15005              95    1.800018e+09 8.0000e+08  55.6%   2.9    0s
*23651 14939              84    1.800016e+09 8.0000e+08  55.6%   2.9    0s
*33146 16944             100    1.650015e+09 8.0000e+08  51.5%   3.0    1s
*120622 60483              89    1.650014e+09 9.0000e+08  45.5%   3.5    3s
*130551 61836             118    1.625014e+09 9.0000e+08  44.6%   3.5    4s
*133330 63513             102    1.625014e+09 9.0000e+08  44.6%   3.5    4s
*142461 68510              99    1.616680e+09 9.0000e+08  44.3%   3.5    4s
*142465 67837             101    1.600014e+09 9.0000e+08  43.8%   3.5    4s
 151223 75313 1.3500e+09   60   44 1.6000e+09 9.0000e+08  43.8%   3.5    5s
*176761 84103              99    1.600013e+09 9.0001e+08  43.8%   3.5    5s
 300835 140585 1.2000e+09   69   36 1.6000e+09 9.7501e+08  39.1%   3.5   10s
*350328 163999              58    1.600013e+09 1.0000e+09  37.5%   3.5   11s
*350329 163840              57    1.600013e+09 1.0000e+09  37.5%   3.5   11s
 450623 214948 1.2000e+09   36   34 1.6000e+09 1.0000e+09  37.5%   3.4   15s
 599997 279322 1.6000e+09   49   24 1.6000e+09 1.0000e+09  37.5%   3.4   20s
*671904 226411              68    1.500014e+09 1.0000e+09  33.3%   3.4   22s
 725258 237980 1.4333e+09   50   40 1.5000e+09 1.0333e+09  31.1%   3.5   25s
 854567 278063 1.1000e+09   42   48 1.5000e+09 1.1000e+09  26.7%   3.5   30s
*951328 305138              76    1.500012e+09 1.1000e+09  26.7%   3.5   33s
 987352 314193 infeasible   68      1.5000e+09 1.1000e+09  26.7%   3.5   35s
 1114475 337561 1.3000e+09   48   42 1.5000e+09 1.1250e+09  25.0%   3.5   40s
 1235755 360686 1.4333e+09   42   46 1.5000e+09 1.1667e+09  22.2%   3.6   45s
 1363326 391959 1.2000e+09   30   44 1.5000e+09 1.2000e+09  20.0%   3.6   50s
 1514591 440916 1.2000e+09   37   36 1.5000e+09 1.2000e+09  20.0%   3.5   55s
 1660835 476777 1.5000e+09   50   40 1.5000e+09 1.2000e+09  20.0%   3.5   60s
 1802863 510644 1.5000e+09   66   22 1.5000e+09 1.2000e+09  20.0%   3.5   65s
*1812968 334046              61    1.466679e+09 1.2000e+09  18.2%   3.5   65s
*1812969 318822              61    1.450012e+09 1.2000e+09  17.2%   3.5   65s
*1814682 299731              73    1.433346e+09 1.2000e+09  16.3%   3.5   65s
*1838595 279529              47    1.400014e+09 1.2000e+09  14.3%   3.5   67s
*1846438 278330              61    1.400013e+09 1.2000e+09  14.3%   3.5   67s
*1885251 144764              68    1.320013e+09 1.2000e+09  9.09%   3.5   69s
 1898184 130827 infeasible   55      1.3200e+09 1.2000e+09  9.09%   3.5   70s
*1917447 24862              71    1.266680e+09 1.2000e+09  5.26%   3.5   70s
*1917448  1122              71    1.200013e+09 1.2000e+09  0.00%   3.5   70s

Explored 1920622 nodes (6627802 simplex iterations) in 70.99 seconds
Thread count was 8 (of 8 available processors)

Solution count 10: 1.20001e+09 1.26668e+09 1.32001e+09 ... 1.50001e+09

Optimal solution found (tolerance 1.00e-04)
Best objective 1.200012600000e+09, best bound 1.200010200000e+09, gap 0.0002%
